(set-option :produce-models true); benchmark generated from python API
(set-info :status unknown)
(declare-fun l_1_0_7 () Real)
(declare-fun l_1_0_5 () Real)
(declare-fun l_1_0_3 () Real)
(declare-fun l_1_0_9 () Real)
(declare-fun l_1_0_10 () Real)
(declare-fun _a_0_ () Real)
(declare-fun l_1_0_2 () Real)
(declare-fun l_1_0_11 () Real)
(declare-fun _a_1_ () Real)
(declare-fun l_1_0_8 () Real)
(declare-fun l_1_0_6 () Real)
(declare-fun l_1_0_4 () Real)
(declare-fun l_1_0_1 () Real)
(declare-fun l_1_1_9 () Real)
(declare-fun l_1_1_8 () Real)
(declare-fun l_1_1_7 () Real)
(declare-fun l_1_1_6 () Real)
(declare-fun l_1_1_5 () Real)
(declare-fun l_1_1_4 () Real)
(declare-fun l_1_1_3 () Real)
(declare-fun l_1_1_2 () Real)
(declare-fun l_1_1_15 () Real)
(declare-fun l_1_1_14 () Real)
(declare-fun l_1_1_13 () Real)
(declare-fun l_1_1_12 () Real)
(declare-fun l_1_1_11 () Real)
(declare-fun l_1_1_10 () Real)
(declare-fun l_1_1_1 () Real)
(declare-fun l_1_1_16 () Real)
(declare-fun l_1_1_17 () Real)
(declare-fun l_1_2_8 () Real)
(declare-fun l_1_2_7 () Real)
(declare-fun l_1_2_5 () Real)
(declare-fun l_1_2_16 () Real)
(declare-fun l_1_2_15 () Real)
(declare-fun l_1_2_12 () Real)
(declare-fun l_1_2_10 () Real)
(declare-fun l_1_2_1 () Real)
(declare-fun l_1_2_9 () Real)
(declare-fun l_1_2_4 () Real)
(declare-fun l_1_2_3 () Real)
(declare-fun l_1_2_2 () Real)
(declare-fun l_1_2_6 () Real)
(declare-fun l_1_2_14 () Real)
(declare-fun l_1_2_13 () Real)
(declare-fun l_1_2_11 () Real)
(declare-fun l_1_2_17 () Real)
(assert
 (let ((?x24 (* 80.0 l_1_0_7)))
 (let ((?x25 (* 80.0 l_1_0_5)))
 (let ((?x27 (* 80.0 l_1_0_3)))
 (let ((?x544 (- (- (- (- _a_0_ (* (* 2.0 l_1_0_10) l_1_0_9)) ?x27) ?x25) ?x24)))
 (= ?x544 0.0))))))
(assert
 (let ((?x405 (* 6400.0 l_1_0_2)))
 (let ((?x406 (- (- (- _a_1_ (* l_1_0_10 l_1_0_10)) (* l_1_0_11 l_1_0_11)) ?x405)))
 (= (+ (+ (+ ?x406 l_1_0_3) l_1_0_5) l_1_0_7) 0.0))))
(assert
 (let ((?x424 (* l_1_0_9 l_1_0_9)))
 (let ((?x425 (+ (- (- (- (- (- l_1_0_1) l_1_0_4) l_1_0_6) l_1_0_8) ?x424) 1.0)))
 (= ?x425 0.0))))
(assert
 (= (* 160.0 l_1_0_2) 0.0))
(assert
 (= (- l_1_0_2) 0.0))
(assert
 (>= l_1_0_1 0.0))
(assert
 (>= l_1_0_2 0.0))
(assert
 (>= l_1_0_3 0.0))
(assert
 (>= l_1_0_4 0.0))
(assert
 (>= l_1_0_5 0.0))
(assert
 (>= l_1_0_6 0.0))
(assert
 (>= l_1_0_7 0.0))
(assert
 (>= l_1_0_8 0.0))
(assert
 (>= l_1_0_9 0.0))
(assert
 (>= l_1_0_11 0.0))
(assert
 (let ((?x220 (* 82.0 l_1_1_9)))
 (let ((?x17 (* 6724.0 l_1_1_7)))
 (let ((?x239 (* 82.0 l_1_1_6)))
 (let ((?x14 (* 82.0 l_1_1_5)))
 (let ((?x18 (* l_1_1_15 l_1_1_15)))
 (let ((?x322 (* 82.0 l_1_1_13)))
 (let ((?x21 (- (- (+ (- l_1_1_1) (* 82.0 l_1_1_10)) l_1_1_11) (* 1.0 l_1_1_12))))
 (let ((?x318 (- (- (- (- (+ ?x21 ?x322) l_1_1_14) ?x18) (* 1.0 l_1_1_2)) (* 1.0 l_1_1_3))))
 (let ((?x300 (- (- (+ (+ (- ?x318 (* 1.0 l_1_1_4)) ?x14) ?x239) ?x17) l_1_1_8)))
 (= (- (+ ?x300 ?x220) 790.0) 0.0)))))))))))
(assert
 (let ((?x8 (* 81.0 l_1_1_9)))
 (let ((?x7 (* 13284.0 l_1_1_7)))
 (let ((?x141 (* 81.0 l_1_1_13)))
 (let ((?x137 (* 81.0 l_1_1_10)))
 (let ((?x176 (* _a_0_ l_1_1_4)))
 (let ((?x174 (* _a_0_ l_1_1_3)))
 (let ((?x61 (- (- (- (* (* (- 2.0) _a_0_) l_1_1_12) (* _a_0_ l_1_1_2)) ?x174) ?x176)))
 (let ((?x10 (- (- (+ (+ ?x61 ?x137) ?x141) (* (* 2.0 l_1_1_15) l_1_1_16)) (* l_1_1_5 (- (* (- 82.0) _a_0_) 81.0)))))
 (let ((?x117 (+ (- (- ?x10 (* l_1_1_6 (- (* (- 82.0) _a_0_) 81.0))) ?x7) ?x8)))
 (= (- ?x117 69.0) 0.0)))))))))))
(assert
 (let ((?x511 (* 6397.0 l_1_1_7)))
 (let ((?x393 (* l_1_1_17 l_1_1_17)))
 (let ((?x234 (* l_1_1_16 l_1_1_16)))
 (let ((?x354 (* _a_1_ l_1_1_4)))
 (let ((?x294 (- (- (- (* (- _a_1_) l_1_1_2) (* _a_1_ l_1_1_3)) ?x354) l_1_1_10)))
 (let ((?x360 (- (- ?x294 (* l_1_1_12 (+ (* _a_0_ _a_0_) (* 2.0 _a_1_)))) l_1_1_13)))
 (let ((?x62 (- (- (- ?x360 ?x234) ?x393) (* l_1_1_5 (+ (- (* (- 81.0) _a_0_) (* 82.0 _a_1_)) 1.0)))))
 (let ((?x466 (- ?x62 (* l_1_1_6 (+ (- (* (- 81.0) _a_0_) (* 82.0 _a_1_)) 1.0)))))
 (= (+ (- (- ?x466 ?x511) l_1_1_9) 1.0) 0.0))))))))))
(assert
 (let ((?x308 (- (* (* (* (- 2.0) _a_0_) _a_1_) l_1_1_12) (* l_1_1_5 (- _a_0_ (* 81.0 _a_1_))))))
 (let ((?x364 (+ (- ?x308 (* l_1_1_6 (- _a_0_ (* 81.0 _a_1_)))) (* 162.0 l_1_1_7))))
 (= ?x364 0.0))))
(assert
 (let ((?x297 (- (- (* (- _a_1_) l_1_1_5) (* _a_1_ l_1_1_6)) (* (* l_1_1_12 _a_1_) _a_1_))))
 (= (- ?x297 l_1_1_7) 0.0)))
(assert
 (>= l_1_1_1 0.0))
(assert
 (>= l_1_1_2 0.0))
(assert
 (>= l_1_1_3 0.0))
(assert
 (>= l_1_1_4 0.0))
(assert
 (>= l_1_1_5 0.0))
(assert
 (>= l_1_1_6 0.0))
(assert
 (>= l_1_1_7 0.0))
(assert
 (>= l_1_1_8 0.0))
(assert
 (>= l_1_1_9 0.0))
(assert
 (>= l_1_1_10 0.0))
(assert
 (>= l_1_1_11 0.0))
(assert
 (>= l_1_1_12 0.0))
(assert
 (>= l_1_1_13 0.0))
(assert
 (>= l_1_1_14 0.0))
(assert
 (>= l_1_1_15 0.0))
(assert
 (>= l_1_1_17 0.0))
(assert
 (let ((?x577 (* 81.0 l_1_2_8)))
 (let ((?x575 (* 81.0 l_1_2_7)))
 (let ((?x568 (* 13284.0 l_1_2_12)))
 (let ((?x566 (* 81.0 l_1_2_10)))
 (let ((?x554 (* _a_0_ l_1_2_4)))
 (let ((?x558 (- (- (- (* (- _a_0_) l_1_2_2) (* _a_0_ l_1_2_3)) ?x554) (* (* 2.0 _a_0_) l_1_2_9))))
 (let ((?x565 (- (+ (+ ?x558 _a_0_) (* 1.0 _a_1_)) (* l_1_2_1 (+ (* 82.0 _a_0_) 81.0)))))
 (let ((?x574 (- (- (- (- ?x565 ?x566) ?x568) (* (* 2.0 l_1_2_15) l_1_2_16)) (* l_1_2_5 (+ (* 82.0 _a_0_) 81.0)))))
 (= (- (- ?x574 ?x575) ?x577) 0.0))))))))))
(assert
 (let ((?x683 (* 82.0 l_1_2_8)))
 (let ((?x681 (* 82.0 l_1_2_7)))
 (let ((?x678 (* 82.0 l_1_2_5)))
 (let ((?x670 (* l_1_2_15 l_1_2_15)))
 (let ((?x666 (* 6724.0 l_1_2_12)))
 (let ((?x663 (* 82.0 l_1_2_10)))
 (let ((?x664 (- (- (+ (* (/ 1.0 2.0) _a_0_) (* (/ 1.0 4.0) _a_1_)) (* 82.0 l_1_2_1)) ?x663)))
 (let ((?x673 (- (- (- (- (- (- ?x664 l_1_2_11) ?x666) l_1_2_13) l_1_2_14) ?x670) (* 1.0 l_1_2_2))))
 (let ((?x680 (- (- (- (- ?x673 (* 1.0 l_1_2_3)) (* 1.0 l_1_2_4)) ?x678) l_1_2_6)))
 (= (+ (- (- (- ?x680 ?x681) ?x683) (* 1.0 l_1_2_9)) 1.0) 0.0)))))))))))
(assert
 (let ((?x762 (* l_1_2_17 l_1_2_17)))
 (let ((?x760 (* l_1_2_16 l_1_2_16)))
 (let ((?x758 (* 6397.0 l_1_2_12)))
 (let ((?x750 (* (/ 9997291.0 10000000.0) _a_1_)))
 (let ((?x747 (* _a_1_ l_1_2_4)))
 (let ((?x745 (* _a_1_ l_1_2_3)))
 (let ((?x751 (+ (- (- (- (* (- (/ 2709.0 10000000.0)) _a_0_) (* _a_1_ l_1_2_2)) ?x745) ?x747) ?x750)))
 (let ((?x756 (- ?x751 (* l_1_2_1 (- (+ (* 81.0 _a_0_) (* 82.0 _a_1_)) 1.0)))))
 (let ((?x765 (- (- (- (- (+ ?x756 l_1_2_10) ?x758) ?x760) ?x762) (* l_1_2_5 (- (+ (* 81.0 _a_0_) (* 82.0 _a_1_)) 1.0)))))
 (let ((?x769 (- (+ (+ ?x765 l_1_2_7) l_1_2_8) (* l_1_2_9 (+ (* _a_0_ _a_0_) (* 2.0 _a_1_))))))
 (= ?x769 0.0))))))))))))
(assert
 (let ((?x873 (* 162.0 l_1_2_12)))
 (let ((?x872 (- (- (* (* (* (- 2.0) _a_0_) _a_1_) l_1_2_9) (* (/ 2709.0 5000000.0) _a_1_)) (* l_1_2_1 (+ (- _a_0_) (* 81.0 _a_1_))))))
 (= (- (+ ?x872 ?x873) (* l_1_2_5 (+ (- _a_0_) (* 81.0 _a_1_)))) 0.0))))
(assert
 (let ((?x927 (* (/ 7338681.0 100000000000000.0) _a_1_)))
 (let ((?x929 (- (+ (+ (* _a_1_ l_1_2_1) (* _a_1_ l_1_2_5)) ?x927) l_1_2_12)))
 (= (- ?x929 (* (* l_1_2_9 _a_1_) _a_1_)) 0.0))))
(assert
 (>= l_1_2_1 0.0))
(assert
 (>= l_1_2_2 0.0))
(assert
 (>= l_1_2_3 0.0))
(assert
 (>= l_1_2_4 0.0))
(assert
 (>= l_1_2_5 0.0))
(assert
 (>= l_1_2_6 0.0))
(assert
 (>= l_1_2_7 0.0))
(assert
 (>= l_1_2_8 0.0))
(assert
 (>= l_1_2_9 0.0))
(assert
 (>= l_1_2_10 0.0))
(assert
 (>= l_1_2_11 0.0))
(assert
 (>= l_1_2_12 0.0))
(assert
 (>= l_1_2_13 0.0))
(assert
 (>= l_1_2_14 0.0))
(assert
 (>= l_1_2_15 0.0))
(assert
 (>= l_1_2_17 0.0))
(check-sat)
(get-model)